c CNF file corresponding to a (partial) station packing problem.
p cnf 5319 229
1 2 3 4 5 6 7 8 9 10 11 12 13 14 0
-1 -2 0
-1 -3 0
-1 -4 0
-1 -5 0
-1 -6 0
-1 -7 0
-1 -8 0
-1 -9 0
-1 -10 0
-1 -11 0
-1 -12 0
-1 -13 0
-1 -14 0
-2 -3 0
-2 -4 0
-2 -5 0
-2 -6 0
-2 -7 0
-2 -8 0
-2 -9 0
-2 -10 0
-2 -11 0
-2 -12 0
-2 -13 0
-2 -14 0
-3 -4 0
-3 -5 0
-3 -6 0
-3 -7 0
-3 -8 0
-3 -9 0
-3 -10 0
-3 -11 0
-3 -12 0
-3 -13 0
-3 -14 0
-4 -5 0
-4 -6 0
-4 -7 0
-4 -8 0
-4 -9 0
-4 -10 0
-4 -11 0
-4 -12 0
-4 -13 0
-4 -14 0
-5 -6 0
-5 -7 0
-5 -8 0
-5 -9 0
-5 -10 0
-5 -11 0
-5 -12 0
-5 -13 0
-5 -14 0
-6 -7 0
-6 -8 0
-6 -9 0
-6 -10 0
-6 -11 0
-6 -12 0
-6 -13 0
-6 -14 0
-7 -8 0
-7 -9 0
-7 -10 0
-7 -11 0
-7 -12 0
-7 -13 0
-7 -14 0
-8 -9 0
-8 -10 0
-8 -11 0
-8 -12 0
-8 -13 0
-8 -14 0
-9 -10 0
-9 -11 0
-9 -12 0
-9 -13 0
-9 -14 0
-10 -11 0
-10 -12 0
-10 -13 0
-10 -14 0
-11 -12 0
-11 -13 0
-11 -14 0
-12 -13 0
-12 -14 0
-13 -14 0
5303 5304 5305 5306 5307 5308 5309 5310 5311 5312 5313 5314 5315 5316 5317 5318 5319 0
-5303 -5304 0
-5303 -5305 0
-5303 -5306 0
-5303 -5307 0
-5303 -5308 0
-5303 -5309 0
-5303 -5310 0
-5303 -5311 0
-5303 -5312 0
-5303 -5313 0
-5303 -5314 0
-5303 -5315 0
-5303 -5316 0
-5303 -5317 0
-5303 -5318 0
-5303 -5319 0
-5304 -5305 0
-5304 -5306 0
-5304 -5307 0
-5304 -5308 0
-5304 -5309 0
-5304 -5310 0
-5304 -5311 0
-5304 -5312 0
-5304 -5313 0
-5304 -5314 0
-5304 -5315 0
-5304 -5316 0
-5304 -5317 0
-5304 -5318 0
-5304 -5319 0
-5305 -5306 0
-5305 -5307 0
-5305 -5308 0
-5305 -5309 0
-5305 -5310 0
-5305 -5311 0
-5305 -5312 0
-5305 -5313 0
-5305 -5314 0
-5305 -5315 0
-5305 -5316 0
-5305 -5317 0
-5305 -5318 0
-5305 -5319 0
-5306 -5307 0
-5306 -5308 0
-5306 -5309 0
-5306 -5310 0
-5306 -5311 0
-5306 -5312 0
-5306 -5313 0
-5306 -5314 0
-5306 -5315 0
-5306 -5316 0
-5306 -5317 0
-5306 -5318 0
-5306 -5319 0
-5307 -5308 0
-5307 -5309 0
-5307 -5310 0
-5307 -5311 0
-5307 -5312 0
-5307 -5313 0
-5307 -5314 0
-5307 -5315 0
-5307 -5316 0
-5307 -5317 0
-5307 -5318 0
-5307 -5319 0
-5308 -5309 0
-5308 -5310 0
-5308 -5311 0
-5308 -5312 0
-5308 -5313 0
-5308 -5314 0
-5308 -5315 0
-5308 -5316 0
-5308 -5317 0
-5308 -5318 0
-5308 -5319 0
-5309 -5310 0
-5309 -5311 0
-5309 -5312 0
-5309 -5313 0
-5309 -5314 0
-5309 -5315 0
-5309 -5316 0
-5309 -5317 0
-5309 -5318 0
-5309 -5319 0
-5310 -5311 0
-5310 -5312 0
-5310 -5313 0
-5310 -5314 0
-5310 -5315 0
-5310 -5316 0
-5310 -5317 0
-5310 -5318 0
-5310 -5319 0
-5311 -5312 0
-5311 -5313 0
-5311 -5314 0
-5311 -5315 0
-5311 -5316 0
-5311 -5317 0
-5311 -5318 0
-5311 -5319 0
-5312 -5313 0
-5312 -5314 0
-5312 -5315 0
-5312 -5316 0
-5312 -5317 0
-5312 -5318 0
-5312 -5319 0
-5313 -5314 0
-5313 -5315 0
-5313 -5316 0
-5313 -5317 0
-5313 -5318 0
-5313 -5319 0
-5314 -5315 0
-5314 -5316 0
-5314 -5317 0
-5314 -5318 0
-5314 -5319 0
-5315 -5316 0
-5315 -5317 0
-5315 -5318 0
-5315 -5319 0
-5316 -5317 0
-5316 -5318 0
-5316 -5319 0
-5317 -5318 0
-5317 -5319 0
-5318 -5319 0
